c This is a random SAT instance with 10 variables and 20 clauses
p cnf 10 20
-9 -8 2 -5 7 -2 0
1 10 0
4 -6 10 -9 0
10 1 -9 7 9 0
-8 -9 1 -3 2 -10 4 0
6 0
7 -3 9 4 8 -5 -10 3 2 0
4 -4 -6 9 2 -5 7 0
10 -9 -3 0
10 -8 -2 -9 4 0
8 -9 -1 -7 -3 9 3 -4 6 4 0
6 9 7 -10 2 -4 -6 -3 1 0
-2 0
-7 9 2 -4 0
5 4 7 0
-4 -3 -5 0
-3 0
7 -1 4 -10 -4 0
6 1 -5 10 5 0
-9 2 10 -10 0